c Instance celegansneural.graph from http://www.cc.gatech.edu/dimacs10/archive/data/
c transformed into a simple undirected graph in the DIMACS format 
p edge 297 2148
e 1 2
e 1 3
e 1 4
e 1 5
e 1 6
e 1 7
e 1 8
e 1 9
e 1 10
e 1 135
e 1 202
e 2 8
e 2 11
e 2 13
e 2 17
e 2 73
e 2 75
e 2 85
e 2 102
e 2 103
e 2 109
e 2 114
e 2 116
e 2 117
e 2 125
e 2 128
e 2 130
e 2 131
e 2 132
e 2 136
e 2 137
e 2 139
e 2 141
e 2 142
e 2 143
e 2 194
e 2 196
e 2 215
e 2 242
e 3 5
e 3 8
e 3 9
e 3 13
e 3 17
e 3 21
e 3 22
e 3 64
e 3 68
e 3 73
e 3 85
e 3 87
e 3 88
e 3 90
e 3 99
e 3 100
e 3 102
e 3 110
e 3 112
e 3 115
e 3 119
e 3 122
e 3 126
e 3 130
e 3 152
e 3 153
e 3 154
e 3 155
e 3 156
e 3 157
e 3 158
e 3 159
e 3 160
e 3 161
e 3 162
e 3 163
e 3 164
e 3 165
e 3 166
e 3 167
e 3 168
e 3 169
e 3 170
e 3 171
e 3 173
e 3 174
e 3 176
e 3 177
e 3 178
e 3 179
e 3 180
e 3 181
e 3 182
e 3 183
e 3 184
e 3 185
e 3 186
e 3 187
e 3 194
e 3 195
e 3 202
e 3 204
e 3 205
e 3 208
e 3 213
e 3 221
e 3 225
e 3 226
e 3 227
e 3 240
e 3 249
e 3 256
e 3 258
e 4 6
e 4 8
e 4 9
e 4 12
e 4 13
e 4 15
e 4 28
e 4 32
e 4 51
e 4 59
e 4 63
e 4 64
e 4 66
e 4 83
e 4 87
e 4 91
e 4 92
e 4 93
e 4 94
e 4 99
e 4 102
e 4 107
e 4 109
e 4 112
e 4 115
e 4 118
e 4 126
e 4 138
e 4 152
e 4 155
e 4 156
e 4 160
e 4 161
e 4 162
e 4 163
e 4 169
e 4 173
e 4 174
e 4 179
e 4 180
e 4 181
e 4 183
e 4 187
e 4 190
e 4 196
e 4 197
e 4 198
e 4 214
e 4 217
e 4 225
e 4 240
e 5 9
e 5 10
e 5 15
e 5 16
e 5 19
e 5 32
e 5 42
e 5 53
e 5 54
e 5 68
e 5 72
e 5 77
e 5 83
e 5 85
e 5 88
e 5 91
e 5 93
e 5 100
e 5 103
e 5 109
e 5 110
e 5 119
e 5 120
e 5 126
e 5 138
e 5 150
e 5 152
e 5 155
e 5 156
e 5 160
e 5 161
e 5 162
e 5 163
e 5 169
e 5 173
e 5 174
e 5 175
e 5 179
e 5 180
e 5 181
e 5 183
e 5 188
e 5 190
e 5 196
e 5 197
e 5 198
e 5 204
e 5 205
e 5 208
e 5 214
e 5 225
e 5 227
e 6 9
e 6 10
e 6 11
e 6 12
e 6 13
e 6 14
e 6 15
e 6 60
e 6 71
e 6 104
e 6 128
e 6 202
e 7 8
e 7 14
e 7 24
e 7 26
e 7 28
e 7 31
e 7 35
e 7 36
e 7 44
e 7 47
e 7 48
e 7 49
e 7 51
e 7 53
e 7 60
e 7 73
e 7 74
e 7 75
e 7 76
e 7 78
e 7 89
e 7 92
e 7 95
e 7 100
e 7 104
e 7 106
e 7 108
e 7 109
e 7 110
e 7 111
e 7 112
e 7 136
e 7 138
e 7 202
e 7 210
e 8 10
e 8 32
e 8 59
e 8 60
e 8 61
e 8 74
e 8 83
e 8 91
e 8 92
e 8 100
e 8 108
e 8 131
e 8 135
e 9 15
e 9 37
e 9 64
e 9 66
e 9 68
e 9 103
e 9 104
e 9 109
e 9 124
e 9 194
e 9 196
e 9 204
e 9 214
e 9 215
e 9 236
e 10 25
e 10 53
e 10 64
e 10 68
e 10 104
e 10 106
e 10 109
e 10 112
e 10 194
e 10 196
e 10 214
e 10 219
e 10 237
e 11 14
e 11 15
e 11 103
e 11 116
e 11 125
e 11 127
e 11 136
e 11 137
e 11 139
e 11 143
e 11 209
e 12 13
e 12 14
e 12 15
e 12 55
e 12 66
e 12 101
e 12 104
e 12 119
e 12 138
e 13 15
e 13 17
e 13 21
e 13 22
e 13 64
e 13 68
e 13 85
e 13 86
e 13 87
e 13 92
e 13 94
e 13 96
e 13 112
e 13 117
e 13 118
e 13 120
e 13 126
e 13 130
e 13 131
e 13 132
e 13 133
e 13 138
e 13 139
e 13 152
e 13 153
e 13 154
e 13 155
e 13 156
e 13 157
e 13 158
e 13 159
e 13 160
e 13 161
e 13 162
e 13 163
e 13 164
e 13 165
e 13 166
e 13 167
e 13 168
e 13 169
e 13 170
e 13 171
e 13 172
e 13 173
e 13 174
e 13 175
e 13 176
e 13 177
e 13 178
e 13 179
e 13 180
e 13 181
e 13 182
e 13 183
e 13 184
e 13 185
e 13 194
e 13 195
e 13 202
e 13 204
e 13 212
e 13 225
e 13 227
e 13 240
e 13 242
e 13 248
e 13 256
e 13 257
e 13 258
e 13 259
e 13 262
e 14 15
e 14 24
e 14 35
e 14 36
e 14 44
e 14 47
e 14 48
e 14 49
e 14 54
e 14 60
e 14 64
e 14 66
e 14 71
e 14 74
e 14 75
e 14 76
e 14 78
e 14 89
e 14 101
e 14 103
e 14 104
e 14 115
e 14 117
e 14 121
e 14 138
e 14 139
e 14 202
e 14 210
e 15 19
e 15 54
e 15 55
e 15 60
e 15 61
e 15 72
e 15 76
e 15 77
e 15 87
e 15 91
e 15 115
e 15 119
e 15 128
e 15 133
e 15 135
e 15 194
e 16 17
e 16 18
e 16 19
e 16 20
e 16 21
e 16 22
e 16 23
e 16 24
e 16 25
e 16 26
e 16 27
e 16 60
e 16 91
e 16 217
e 17 20
e 17 23
e 17 74
e 17 85
e 17 93
e 17 99
e 17 114
e 17 115
e 17 116
e 17 117
e 17 118
e 17 119
e 17 120
e 17 121
e 17 242
e 18 19
e 18 20
e 18 23
e 18 24
e 18 42
e 18 43
e 18 45
e 18 54
e 18 71
e 19 24
e 19 36
e 19 44
e 19 48
e 19 52
e 19 64
e 19 72
e 19 73
e 19 74
e 19 75
e 19 76
e 19 77
e 20 21
e 20 23
e 20 47
e 20 60
e 20 63
e 20 71
e 20 81
e 20 101
e 21 28
e 21 59
e 21 63
e 21 66
e 21 69
e 21 72
e 21 74
e 21 75
e 21 76
e 21 90
e 21 122
e 21 131
e 21 133
e 21 210
e 21 211
e 22 28
e 22 33
e 22 53
e 22 56
e 22 58
e 22 59
e 22 69
e 22 70
e 22 72
e 22 74
e 22 75
e 22 76
e 22 78
e 22 84
e 22 86
e 22 107
e 22 122
e 22 240
e 23 27
e 23 41
e 23 43
e 23 55
e 23 56
e 23 57
e 23 60
e 23 71
e 23 72
e 23 102
e 23 117
e 24 42
e 24 44
e 24 45
e 24 47
e 24 49
e 24 51
e 24 54
e 24 59
e 24 69
e 24 76
e 24 83
e 24 91
e 24 92
e 24 210
e 24 241
e 25 45
e 25 49
e 25 59
e 25 64
e 25 242
e 26 84
e 26 94
e 26 191
e 26 210
e 27 45
e 27 50
e 27 52
e 27 65
e 27 71
e 28 29
e 28 30
e 28 31
e 28 32
e 28 33
e 28 34
e 28 35
e 28 36
e 28 37
e 28 38
e 28 39
e 28 40
e 28 60
e 28 91
e 28 241
e 29 111
e 29 115
e 29 123
e 29 135
e 29 151
e 30 31
e 30 32
e 30 33
e 30 34
e 30 36
e 30 43
e 30 45
e 30 51
e 30 92
e 31 33
e 31 34
e 31 39
e 31 50
e 31 52
e 31 53
e 31 60
e 31 65
e 32 36
e 32 46
e 32 47
e 32 48
e 32 49
e 32 50
e 32 59
e 32 67
e 32 68
e 32 74
e 32 75
e 32 76
e 32 78
e 32 91
e 32 122
e 32 212
e 33 34
e 33 44
e 33 50
e 33 53
e 33 60
e 33 67
e 33 82
e 34 39
e 34 43
e 34 46
e 34 53
e 34 58
e 34 60
e 34 62
e 34 69
e 34 107
e 34 206
e 35 38
e 35 44
e 35 45
e 35 48
e 35 64
e 35 73
e 35 75
e 35 78
e 35 113
e 36 44
e 36 45
e 36 48
e 36 51
e 36 56
e 36 57
e 36 77
e 36 78
e 36 84
e 36 92
e 36 217
e 37 45
e 37 50
e 37 69
e 37 72
e 37 94
e 37 237
e 37 242
e 38 53
e 38 70
e 38 191
e 38 214
e 39 44
e 39 45
e 39 50
e 39 51
e 39 65
e 39 67
e 40 60
e 40 93
e 40 128
e 40 135
e 40 146
e 40 149
e 40 150
e 40 151
e 40 226
e 41 42
e 41 43
e 41 44
e 41 45
e 41 55
e 41 57
e 41 72
e 42 44
e 42 45
e 42 47
e 42 48
e 42 49
e 42 50
e 42 63
e 42 64
e 42 72
e 42 84
e 43 46
e 43 78
e 43 85
e 43 87
e 43 99
e 43 120
e 43 126
e 43 138
e 43 168
e 43 169
e 43 172
e 43 173
e 43 174
e 43 185
e 43 186
e 43 207
e 43 218
e 43 219
e 43 233
e 44 45
e 44 51
e 44 72
e 44 77
e 44 88
e 44 92
e 44 94
e 45 46
e 45 47
e 45 48
e 45 49
e 45 50
e 45 51
e 45 52
e 45 57
e 45 61
e 45 62
e 45 65
e 45 74
e 45 75
e 45 76
e 45 78
e 45 86
e 45 88
e 45 90
e 45 94
e 45 97
e 45 98
e 45 105
e 45 113
e 45 131
e 45 133
e 45 134
e 45 143
e 45 152
e 45 153
e 45 154
e 45 155
e 45 156
e 45 157
e 45 158
e 45 159
e 45 160
e 45 161
e 45 162
e 45 163
e 45 164
e 45 165
e 45 166
e 45 167
e 45 168
e 45 169
e 45 170
e 45 176
e 45 177
e 45 178
e 45 179
e 45 180
e 45 181
e 45 182
e 45 183
e 45 184
e 45 188
e 45 189
e 45 190
e 45 192
e 45 193
e 45 196
e 45 197
e 45 198
e 45 200
e 45 201
e 45 203
e 45 205
e 45 208
e 45 210
e 45 211
e 45 215
e 45 220
e 45 222
e 45 228
e 45 231
e 45 232
e 45 233
e 45 234
e 45 235
e 45 238
e 45 239
e 45 245
e 45 246
e 45 247
e 45 250
e 45 251
e 45 252
e 45 254
e 45 255
e 45 263
e 45 264
e 45 265
e 45 266
e 45 267
e 45 268
e 45 269
e 45 270
e 45 271
e 45 272
e 45 273
e 45 274
e 45 275
e 45 276
e 45 277
e 45 278
e 45 279
e 45 280
e 45 281
e 45 282
e 45 283
e 45 284
e 45 285
e 45 286
e 45 287
e 45 288
e 45 289
e 45 290
e 45 291
e 45 292
e 45 293
e 45 294
e 45 295
e 46 47
e 46 51
e 46 58
e 46 59
e 47 51
e 47 54
e 47 59
e 47 62
e 47 80
e 47 83
e 47 88
e 47 210
e 48 49
e 48 51
e 48 63
e 48 64
e 48 67
e 48 70
e 48 88
e 48 91
e 48 94
e 48 131
e 48 133
e 48 215
e 49 51
e 49 53
e 49 63
e 49 68
e 49 70
e 49 88
e 49 91
e 49 93
e 49 94
e 49 131
e 49 133
e 49 210
e 49 211
e 49 214
e 49 215
e 50 55
e 50 58
e 50 60
e 50 62
e 50 63
e 50 71
e 51 52
e 51 53
e 51 59
e 51 67
e 51 70
e 52 55
e 52 57
e 52 58
e 52 67
e 52 71
e 53 70
e 53 85
e 53 87
e 53 88
e 53 100
e 53 104
e 53 106
e 54 60
e 54 76
e 54 79
e 54 87
e 54 91
e 55 56
e 55 57
e 56 60
e 56 63
e 56 72
e 56 79
e 57 72
e 57 226
e 58 59
e 58 60
e 58 61
e 58 62
e 59 60
e 59 62
e 59 68
e 59 69
e 59 70
e 59 83
e 59 86
e 59 88
e 59 89
e 59 91
e 59 96
e 59 241
e 60 63
e 60 64
e 60 65
e 60 67
e 60 68
e 60 69
e 60 71
e 60 72
e 60 92
e 60 100
e 60 103
e 60 106
e 60 109
e 60 196
e 61 62
e 61 86
e 61 90
e 61 97
e 62 83
e 62 96
e 63 64
e 63 65
e 63 66
e 64 68
e 64 72
e 64 82
e 64 84
e 64 86
e 64 94
e 64 95
e 64 96
e 64 102
e 64 130
e 64 210
e 64 216
e 64 226
e 65 67
e 65 71
e 65 75
e 65 105
e 65 113
e 65 196
e 65 210
e 66 84
e 66 85
e 66 94
e 66 99
e 66 104
e 66 202
e 67 68
e 67 69
e 67 70
e 68 88
e 68 96
e 68 99
e 68 107
e 68 119
e 68 130
e 68 207
e 68 213
e 68 219
e 68 225
e 69 80
e 70 87
e 70 88
e 70 89
e 70 90
e 72 77
e 72 84
e 72 90
e 72 91
e 72 94
e 72 95
e 72 217
e 73 94
e 73 96
e 73 113
e 73 115
e 73 131
e 73 133
e 73 134
e 73 138
e 73 214
e 73 215
e 73 223
e 74 76
e 74 77
e 74 83
e 74 91
e 74 115
e 74 131
e 74 210
e 74 213
e 74 219
e 75 77
e 75 78
e 75 83
e 75 91
e 75 131
e 75 133
e 75 212
e 75 219
e 75 237
e 76 91
e 76 107
e 76 210
e 76 219
e 78 91
e 78 92
e 78 102
e 78 133
e 78 236
e 78 237
e 79 92
e 79 94
e 79 126
e 79 191
e 79 207
e 80 92
e 80 173
e 80 191
e 81 191
e 82 191
e 84 85
e 84 86
e 85 87
e 85 99
e 85 102
e 85 107
e 85 112
e 85 117
e 85 118
e 85 119
e 85 120
e 85 121
e 85 122
e 85 124
e 85 126
e 85 130
e 85 131
e 85 133
e 85 138
e 85 143
e 85 152
e 85 153
e 85 156
e 85 157
e 85 158
e 85 159
e 85 164
e 85 173
e 85 176
e 85 181
e 85 188
e 85 189
e 85 190
e 85 191
e 85 194
e 85 200
e 85 202
e 85 203
e 85 204
e 85 206
e 85 207
e 85 214
e 85 216
e 85 225
e 85 227
e 85 242
e 86 109
e 86 121
e 86 138
e 86 196
e 86 199
e 86 212
e 86 219
e 86 236
e 87 88
e 87 94
e 87 99
e 87 102
e 87 107
e 87 110
e 87 111
e 87 112
e 87 115
e 87 118
e 87 119
e 87 120
e 87 122
e 87 126
e 87 130
e 87 131
e 87 133
e 87 150
e 87 152
e 87 153
e 87 156
e 87 157
e 87 158
e 87 159
e 87 164
e 87 173
e 87 176
e 87 181
e 87 188
e 87 189
e 87 190
e 87 191
e 87 192
e 87 199
e 87 200
e 87 202
e 87 204
e 87 205
e 87 206
e 87 207
e 87 208
e 87 216
e 87 225
e 87 242
e 88 104
e 88 107
e 88 110
e 88 118
e 88 120
e 88 143
e 88 151
e 88 215
e 88 237
e 89 191
e 89 241
e 90 103
e 90 106
e 90 124
e 90 138
e 90 213
e 90 237
e 91 92
e 91 120
e 91 126
e 91 131
e 91 133
e 91 188
e 91 214
e 91 219
e 91 240
e 94 102
e 94 105
e 94 115
e 94 132
e 94 142
e 94 146
e 94 217
e 94 236
e 95 191
e 96 120
e 96 126
e 96 143
e 96 173
e 96 199
e 96 205
e 96 207
e 96 208
e 96 241
e 96 242
e 97 98
e 97 126
e 97 128
e 97 173
e 97 207
e 98 166
e 98 167
e 98 168
e 98 177
e 98 178
e 98 188
e 98 196
e 98 222
e 98 228
e 98 251
e 98 252
e 98 254
e 98 255
e 98 279
e 98 281
e 99 102
e 99 119
e 99 120
e 99 122
e 99 124
e 99 126
e 99 146
e 99 151
e 99 173
e 99 185
e 99 187
e 99 192
e 99 199
e 99 203
e 99 205
e 99 206
e 99 207
e 99 208
e 99 216
e 99 226
e 99 227
e 99 257
e 100 106
e 100 108
e 100 135
e 100 138
e 101 102
e 101 103
e 101 104
e 101 105
e 101 117
e 101 121
e 102 114
e 102 115
e 102 133
e 102 204
e 102 209
e 102 225
e 103 104
e 103 105
e 103 114
e 103 115
e 103 121
e 103 133
e 103 136
e 103 137
e 103 138
e 103 143
e 103 192
e 103 209
e 104 106
e 104 109
e 104 111
e 104 117
e 104 124
e 104 138
e 104 140
e 104 192
e 104 199
e 104 202
e 105 124
e 105 132
e 105 138
e 105 150
e 105 223
e 105 224
e 106 107
e 106 108
e 106 109
e 106 110
e 106 111
e 106 112
e 106 113
e 106 136
e 106 140
e 106 199
e 107 110
e 107 120
e 107 123
e 107 131
e 107 210
e 108 109
e 108 116
e 108 125
e 108 129
e 108 136
e 108 140
e 108 192
e 109 111
e 109 113
e 109 115
e 109 123
e 109 131
e 109 138
e 109 140
e 109 143
e 109 192
e 110 112
e 110 115
e 110 118
e 110 119
e 110 122
e 110 123
e 110 143
e 110 144
e 110 192
e 110 206
e 111 113
e 111 140
e 111 192
e 111 199
e 112 126
e 112 131
e 112 146
e 112 173
e 112 188
e 112 191
e 112 194
e 112 196
e 112 199
e 112 202
e 112 206
e 112 227
e 112 234
e 113 138
e 113 199
e 113 223
e 113 224
e 114 116
e 114 117
e 114 125
e 114 128
e 114 136
e 114 139
e 114 141
e 114 142
e 114 146
e 114 150
e 114 192
e 114 216
e 115 116
e 115 121
e 115 122
e 115 123
e 115 125
e 115 130
e 115 131
e 115 132
e 115 133
e 115 134
e 115 136
e 115 139
e 115 143
e 115 148
e 115 194
e 115 196
e 115 211
e 115 225
e 115 240
e 116 122
e 116 123
e 116 125
e 116 127
e 116 128
e 116 129
e 116 137
e 116 139
e 116 140
e 117 118
e 117 119
e 117 133
e 117 142
e 117 143
e 117 192
e 118 119
e 118 120
e 118 122
e 118 126
e 118 130
e 118 143
e 118 150
e 118 152
e 118 153
e 118 154
e 118 157
e 118 158
e 118 160
e 118 161
e 118 162
e 118 163
e 118 164
e 118 167
e 118 168
e 118 171
e 118 173
e 118 174
e 118 177
e 118 179
e 118 180
e 118 182
e 118 183
e 118 185
e 118 187
e 118 192
e 118 193
e 118 194
e 118 195
e 118 199
e 118 202
e 118 225
e 118 227
e 118 256
e 118 257
e 118 258
e 118 262
e 119 122
e 119 124
e 119 126
e 119 130
e 119 150
e 119 151
e 119 152
e 119 153
e 119 154
e 119 157
e 119 158
e 119 160
e 119 161
e 119 162
e 119 163
e 119 164
e 119 167
e 119 168
e 119 171
e 119 173
e 119 174
e 119 175
e 119 177
e 119 179
e 119 180
e 119 182
e 119 183
e 119 185
e 119 193
e 119 194
e 119 195
e 119 202
e 119 204
e 119 205
e 119 208
e 119 217
e 119 221
e 119 225
e 119 227
e 119 229
e 119 258
e 120 124
e 120 126
e 120 131
e 120 143
e 120 149
e 120 150
e 120 171
e 120 173
e 120 175
e 120 192
e 120 199
e 120 200
e 120 202
e 120 205
e 120 206
e 120 208
e 120 221
e 121 143
e 121 192
e 121 209
e 122 123
e 122 124
e 122 125
e 122 126
e 123 125
e 123 139
e 123 140
e 123 144
e 123 148
e 123 149
e 123 151
e 123 206
e 124 146
e 124 150
e 124 199
e 124 200
e 124 201
e 124 202
e 124 203
e 124 204
e 124 216
e 124 229
e 124 230
e 124 260
e 125 136
e 125 137
e 125 139
e 125 144
e 126 138
e 126 152
e 126 155
e 126 161
e 126 169
e 126 170
e 126 172
e 126 173
e 126 178
e 126 185
e 126 188
e 126 193
e 126 202
e 126 206
e 126 207
e 126 217
e 126 218
e 126 225
e 126 226
e 126 227
e 126 233
e 126 249
e 126 254
e 126 255
e 126 256
e 126 257
e 126 258
e 126 259
e 126 263
e 126 264
e 126 265
e 126 266
e 126 267
e 126 268
e 127 128
e 127 209
e 128 141
e 129 135
e 129 140
e 130 138
e 130 173
e 130 225
e 130 240
e 131 132
e 131 138
e 131 143
e 131 199
e 131 206
e 131 211
e 131 212
e 131 213
e 131 214
e 131 216
e 131 219
e 132 133
e 132 134
e 132 210
e 132 219
e 132 224
e 132 226
e 133 134
e 133 192
e 133 211
e 133 212
e 133 213
e 133 214
e 133 216
e 133 219
e 134 138
e 134 174
e 134 179
e 134 180
e 134 197
e 134 198
e 134 201
e 134 203
e 134 215
e 134 220
e 134 225
e 135 136
e 136 137
e 136 139
e 136 140
e 136 144
e 136 209
e 137 139
e 137 142
e 138 169
e 138 170
e 138 172
e 138 173
e 138 178
e 138 186
e 138 193
e 138 202
e 138 212
e 138 213
e 138 214
e 138 218
e 138 219
e 138 225
e 138 229
e 138 230
e 138 233
e 138 242
e 138 248
e 138 249
e 138 254
e 138 255
e 138 259
e 138 260
e 138 262
e 139 144
e 140 148
e 140 206
e 141 142
e 141 150
e 141 209
e 142 145
e 142 146
e 142 150
e 142 192
e 143 147
e 143 149
e 143 151
e 143 158
e 143 164
e 143 165
e 143 170
e 143 174
e 143 182
e 143 183
e 143 187
e 143 192
e 143 200
e 143 203
e 143 205
e 143 206
e 143 239
e 143 245
e 143 246
e 143 262
e 143 283
e 143 285
e 145 146
e 146 150
e 146 188
e 146 192
e 146 194
e 146 196
e 146 200
e 146 201
e 146 203
e 146 219
e 146 220
e 146 227
e 146 229
e 146 230
e 146 285
e 147 148
e 147 149
e 147 151
e 147 192
e 148 149
e 148 151
e 149 188
e 149 194
e 149 196
e 149 199
e 149 200
e 149 201
e 149 204
e 149 206
e 149 214
e 149 220
e 149 227
e 149 246
e 150 199
e 150 200
e 150 203
e 150 216
e 150 217
e 151 192
e 151 200
e 151 203
e 151 206
e 152 160
e 152 173
e 152 188
e 152 201
e 152 231
e 153 166
e 153 250
e 153 254
e 153 269
e 154 162
e 154 167
e 154 168
e 154 178
e 154 228
e 154 250
e 154 254
e 155 161
e 155 173
e 155 198
e 155 231
e 156 162
e 156 190
e 156 198
e 156 233
e 157 169
e 157 190
e 157 232
e 158 163
e 158 192
e 158 193
e 158 232
e 158 235
e 159 164
e 159 193
e 159 235
e 159 270
e 160 198
e 160 201
e 160 207
e 160 220
e 161 173
e 161 188
e 161 190
e 161 198
e 161 201
e 161 220
e 162 163
e 162 190
e 162 232
e 162 234
e 163 164
e 163 232
e 163 235
e 163 270
e 163 276
e 164 165
e 164 192
e 164 270
e 164 272
e 164 277
e 165 166
e 165 269
e 165 273
e 165 274
e 165 277
e 166 167
e 166 228
e 166 250
e 166 278
e 167 168
e 167 178
e 167 196
e 167 222
e 167 227
e 167 228
e 167 229
e 168 178
e 168 222
e 168 228
e 168 251
e 168 260
e 169 173
e 169 190
e 169 232
e 169 234
e 169 235
e 169 270
e 169 276
e 170 173
e 170 235
e 170 270
e 170 271
e 170 272
e 170 273
e 170 274
e 170 277
e 170 278
e 171 173
e 171 178
e 171 195
e 171 208
e 171 256
e 171 257
e 171 259
e 172 186
e 172 191
e 172 203
e 172 214
e 172 218
e 172 219
e 172 247
e 173 178
e 173 185
e 173 186
e 173 188
e 173 193
e 173 202
e 173 204
e 173 205
e 173 206
e 173 207
e 173 208
e 173 217
e 173 221
e 173 227
e 173 233
e 173 241
e 173 248
e 173 254
e 173 255
e 173 258
e 173 260
e 173 262
e 173 263
e 173 264
e 173 265
e 173 266
e 173 267
e 173 268
e 174 179
e 174 188
e 174 192
e 175 188
e 175 191
e 176 177
e 176 247
e 176 278
e 177 178
e 177 227
e 177 228
e 177 250
e 178 184
e 178 221
e 178 222
e 178 254
e 178 255
e 178 256
e 178 257
e 178 258
e 178 259
e 178 260
e 179 180
e 179 197
e 179 198
e 179 201
e 179 220
e 179 238
e 180 181
e 180 190
e 180 198
e 180 220
e 180 234
e 181 182
e 181 232
e 181 234
e 182 183
e 182 232
e 182 235
e 182 276
e 183 189
e 183 192
e 183 276
e 184 285
e 185 195
e 185 257
e 185 260
e 186 191
e 186 200
e 186 214
e 186 218
e 186 219
e 186 247
e 186 262
e 187 191
e 187 192
e 188 196
e 188 200
e 188 203
e 188 204
e 188 205
e 188 208
e 188 220
e 188 221
e 188 222
e 188 246
e 188 285
e 189 270
e 189 272
e 189 277
e 189 280
e 190 205
e 190 208
e 190 231
e 190 233
e 190 234
e 190 238
e 190 246
e 191 196
e 191 204
e 191 205
e 191 208
e 191 214
e 191 218
e 191 219
e 191 225
e 191 227
e 191 243
e 191 244
e 191 248
e 191 249
e 191 253
e 191 296
e 191 297
e 192 203
e 192 216
e 192 226
e 192 239
e 192 245
e 192 261
e 193 232
e 193 235
e 193 270
e 193 272
e 193 276
e 193 277
e 194 196
e 194 204
e 194 211
e 194 214
e 194 215
e 194 219
e 194 245
e 194 284
e 195 205
e 195 208
e 195 227
e 196 211
e 196 214
e 196 215
e 196 219
e 196 227
e 196 245
e 196 251
e 196 284
e 197 201
e 197 220
e 198 220
e 198 231
e 198 233
e 198 238
e 198 246
e 199 200
e 199 201
e 199 206
e 199 226
e 199 229
e 200 203
e 200 205
e 200 208
e 200 227
e 200 228
e 200 245
e 200 284
e 201 220
e 201 231
e 201 239
e 201 246
e 201 283
e 202 204
e 203 206
e 203 227
e 203 228
e 203 229
e 203 245
e 203 284
e 204 216
e 204 219
e 204 227
e 204 234
e 205 206
e 205 208
e 205 220
e 205 221
e 205 222
e 205 226
e 205 227
e 205 232
e 205 234
e 205 239
e 205 246
e 205 251
e 205 253
e 206 208
e 207 214
e 207 218
e 207 226
e 208 220
e 208 222
e 208 226
e 208 227
e 208 232
e 208 234
e 208 239
e 208 246
e 208 253
e 208 257
e 211 212
e 211 214
e 211 219
e 212 236
e 213 237
e 214 215
e 214 218
e 215 219
e 215 240
e 216 217
e 217 226
e 217 240
e 218 219
e 220 231
e 220 233
e 220 238
e 220 246
e 220 283
e 221 253
e 221 257
e 222 285
e 227 229
e 227 230
e 228 254
e 228 285
e 229 230
e 229 256
e 229 258
e 230 256
e 230 258
e 231 232
e 232 233
e 232 234
e 232 239
e 232 246
e 233 234
e 233 235
e 234 238
e 234 239
e 234 246
e 234 263
e 234 264
e 234 285
e 235 246
e 235 276
e 238 239
e 239 246
e 239 283
e 245 246
e 245 284
e 245 285
e 246 253
e 246 270
e 246 272
e 246 276
e 246 277
e 246 283
e 246 284
e 247 269
e 247 274
e 247 278
e 247 280
e 248 249
e 250 254
e 250 278
e 250 285
e 253 257
e 254 269
e 254 274
e 256 258
e 259 260
e 264 276
e 265 276
e 266 276
e 266 277
e 267 277
e 268 277
e 268 278
e 269 275
e 269 278
e 269 279
e 269 285
e 270 271
e 270 276
e 270 279
e 271 272
e 272 273
e 272 277
e 272 279
e 272 285
e 273 274
e 274 275
e 274 277
e 274 279
e 274 285
e 275 279
e 276 285
e 277 280
e 277 284
e 277 285
e 278 279
e 278 281
e 278 282
e 278 285
